db/inputs/1460418162172032332732751721943431242.smt2
(set-logic QF_FP)
(declare-const x0 (_ FloatingPoint 8 24))
(declare-const x1 (_ FloatingPoint 8 24))
(declare-const x2 (_ FloatingPoint 8 24))
(declare-const x3 (_ FloatingPoint 8 24))
(declare-const x4 (_ FloatingPoint 8 24))
(declare-const x5 (_ FloatingPoint 8 24))
(declare-const x6 (_ FloatingPoint 8 24))
(declare-const x7 (_ FloatingPoint 8 24))
(declare-const x8 (_ FloatingPoint 8 24))
(declare-const x9 (_ FloatingPoint 8 24))
(assert (fp.leq (fp.add RNE (fp.sub RNE x0 x0) (fp.div RNE x1 x4)) (fp.add RNE (fp.add RNE x1 x2) (fp.neg x0))))
(assert (fp.lt (fp.add RNE (fp.add RNE x7 x4) (fp.div RNE x3 x0)) (fp.add RNE (fp.mul RNE x9 x1) (fp.mul RNE x2 x9))))
(assert (fp.leq (fp.sub RNE (fp.add RNE x6 x5) (fp.add RNE x4 x8)) (fp.add RNE (fp.sub RNE x8 x2) (fp.mul RNE x7 x3))))
(assert (fp.gt (fp.div RNE (fp.sub RNE x9 x4) (fp.add RNE x1 x5)) (fp.div RNE (fp.add RNE x9 x4) (fp.div RNE x6 x1))))
(assert (fp.lt (fp.add RNE (fp.sub RNE x1 x3) (fp.add RNE x5 x1)) (fp.sub RNE (fp.add RNE x1 x1) (fp.sub RNE x0 x6))))
(assert (fp.lt (fp.add RNE (fp.neg x9) (fp.add RNE x1 x0)) (fp.sub RNE (fp.add RNE x1 x9) (fp.sub RNE x4 x3))))
(assert (fp.leq (fp.neg (fp.mul RNE x6 x8)) (fp.div RNE (fp.add RNE x9 x3) (fp.add RNE x0 x0))))
(assert (fp.eq (fp.sub RNE (fp.mul RNE x5 x3) (fp.add RNE x3 x9)) (fp.add RNE (fp.mul RNE x7 x0) (fp.div RNE x1 x1))))
(assert (fp.gt (fp.mul RNE (fp.add RNE x2 x9) (fp.neg x2)) (fp.add RNE (fp.add RNE x6 x6) (fp.div RNE x0 x7))))
(check-sat)
