db/data/1460418162172032332732751721943431242.z3.out
sat
-------------------
245.978778901
